(set-info :source |printed by MathSAT|)
(declare-fun call_rtp._X4_ () Int)
(declare-fun call_rtp.ite28 () Int)
(declare-fun call_Sofar.Sofar () Bool)
(declare-fun call_rtp._X6_ () Int)
(declare-fun call_rtp.ite9 () Int)
(declare-fun call_rtp.ite29 () Int)
(declare-fun _X5_ () Int)
(declare-fun _X7_ () Int)
(declare-fun param_e08 () Bool)
(declare-fun call_rtp.ite33 () Int)
(declare-fun call_rtp.ite38 () Int)
(declare-fun call_rtp.ite10 () Int)
(declare-fun call_rtp.ite36 () Int)
(declare-fun call_rtp.flby () Int)
(declare-fun param_e07 () Bool)
(declare-fun call_rtp.ite14 () Int)
(declare-fun call_rtp.ite41 () Int)
(declare-fun call_rtp.ite21 () Int)
(declare-fun call_rtp.ite39 () Int)
(declare-fun call_rtp.ite18 () Int)
(declare-fun call_rtp.flby7 () Int)
(declare-fun param_e09 () Bool)
(declare-fun call_rtp.erreur () Bool)
(declare-fun call_rtp.ite47 () Int)
(declare-fun call_rtp.ite22 () Int)
(declare-fun call_rtp.flby6 () Int)
(declare-fun call_rtp.ite16 () Int)
(declare-fun call_rtp.ite24 () Int)
(declare-fun call_rtp.ite45 () Int)
(declare-fun call_rtp.ite27 () Int)
(declare-fun call_rtp.ite20 () Int)
(declare-fun call_rtp._X9_ () Int)
(declare-fun call_rtp.flby9 () Int)
(declare-fun param_e11 () Bool)
(declare-fun call_rtp._X1_ () Int)
(declare-fun call_rtp.ite12 () Int)
(declare-fun call_rtp.ite40 () Int)
(declare-fun _X3_ () Int)
(declare-fun call_rtp.ite30 () Int)
(declare-fun call_rtp.flby4 () Int)
(declare-fun _X2_ () Int)
(declare-fun call_rtp.ite34 () Int)
(declare-fun call_rtp.ite31 () Int)
(declare-fun call_rtp._X5_ () Int)
(declare-fun call_rtp.ite7 () Int)
(declare-fun param_e12 () Bool)
(declare-fun call_rtp._X7_ () Int)
(declare-fun call_rtp.ite2 () Int)
(declare-fun call_rtp.ite6 () Int)
(declare-fun call_rtp.ite35 () Int)
(declare-fun call_rtp.ite42 () Int)
(declare-fun _X8_ () Int)
(declare-fun call_rtp.ite4 () Int)
(declare-fun call_rtp.ite11 () Int)
(declare-fun erreur () Bool)
(declare-fun param_e06 () Bool)
(declare-fun call_rtp.ite46 () Int)
(declare-fun call_rtp.ite8 () Int)
(declare-fun call_rtp.flby5 () Int)
(declare-fun call_rtp.ite26 () Int)
(declare-fun _X4_ () Int)
(declare-fun call_rtp.ite () Bool)
(declare-fun call_excludes12.excludes () Bool)
(declare-fun _OK_ () Bool)
(declare-fun _X6_ () Int)
(declare-fun call_rtp.ite43 () Int)
(declare-fun call_rtp.ite13 () Int)
(declare-fun call_rtp.ite19 () Int)
(declare-fun call_rtp.ite17 () Int)
(declare-fun param_e01 () Bool)
(declare-fun call_rtp._X3_ () Int)
(declare-fun param_e10 () Bool)
(declare-fun call_rtp._X2_ () Int)
(declare-fun call_rtp.ite37 () Int)
(declare-fun call_rtp.ite5 () Int)
(declare-fun call_rtp.flby8 () Int)
(declare-fun call_Sofar.flby () Bool)
(declare-fun call_rtp.ite23 () Int)
(declare-fun param_e03 () Bool)
(declare-fun call_rtp.ite49 () Int)
(declare-fun call_rtp.ite44 () Int)
(declare-fun call_rtp._X8_ () Int)
(declare-fun param_e02 () Bool)
(declare-fun param_e05 () Bool)
(declare-fun call_rtp.flby3 () Int)
(declare-fun call_rtp.ite48 () Int)
(declare-fun call_rtp.ite25 () Int)
(declare-fun call_rtp.ite3 () Int)
(declare-fun call_rtp.ite15 () Int)
(declare-fun _X9_ () Int)
(declare-fun call_rtp.flby2 () Int)
(declare-fun _X1_ () Int)
(declare-fun call_rtp.ite32 () Int)
(declare-fun param_e04 () Bool)
(define-fun .def_1482 () Bool (= call_Sofar.flby call_Sofar.Sofar))
(define-fun .def_1306 () Bool (not param_e02))
(define-fun .def_1118 () Bool (not param_e01))
(define-fun .def_1380 () Bool (and .def_1118 .def_1306))
(define-fun .def_1137 () Bool (not param_e03))
(define-fun .def_1381 () Bool (and .def_1137 .def_1380))
(define-fun .def_1332 () Bool (not param_e04))
(define-fun .def_1382 () Bool (and .def_1332 .def_1381))
(define-fun .def_1144 () Bool (not param_e05))
(define-fun .def_1383 () Bool (and .def_1144 .def_1382))
(define-fun .def_1097 () Bool (not param_e06))
(define-fun .def_1384 () Bool (and .def_1097 .def_1383))
(define-fun .def_1185 () Bool (not param_e07))
(define-fun .def_1385 () Bool (and .def_1185 .def_1384))
(define-fun .def_1230 () Bool (not param_e08))
(define-fun .def_1386 () Bool (and .def_1230 .def_1385))
(define-fun .def_1091 () Bool (not param_e09))
(define-fun .def_1387 () Bool (and .def_1091 .def_1386))
(define-fun .def_1104 () Bool (not param_e10))
(define-fun .def_1388 () Bool (and .def_1104 .def_1387))
(define-fun .def_1111 () Bool (not param_e11))
(define-fun .def_1389 () Bool (and .def_1111 .def_1388))
(define-fun .def_1125 () Bool (not param_e12))
(define-fun .def_1467 () Bool (and .def_1125 .def_1389))
(define-fun .def_1456 () Bool (and param_e01 .def_1306))
(define-fun .def_1457 () Bool (and .def_1137 .def_1456))
(define-fun .def_1458 () Bool (and .def_1332 .def_1457))
(define-fun .def_1459 () Bool (and .def_1144 .def_1458))
(define-fun .def_1460 () Bool (and .def_1097 .def_1459))
(define-fun .def_1461 () Bool (and .def_1185 .def_1460))
(define-fun .def_1462 () Bool (and .def_1230 .def_1461))
(define-fun .def_1463 () Bool (and .def_1091 .def_1462))
(define-fun .def_1464 () Bool (and .def_1104 .def_1463))
(define-fun .def_1465 () Bool (and .def_1111 .def_1464))
(define-fun .def_1466 () Bool (and .def_1125 .def_1465))
(define-fun .def_1468 () Bool (or .def_1466 .def_1467))
(define-fun .def_1445 () Bool (and .def_1118 param_e02))
(define-fun .def_1446 () Bool (and .def_1137 .def_1445))
(define-fun .def_1447 () Bool (and .def_1332 .def_1446))
(define-fun .def_1448 () Bool (and .def_1144 .def_1447))
(define-fun .def_1449 () Bool (and .def_1097 .def_1448))
(define-fun .def_1450 () Bool (and .def_1185 .def_1449))
(define-fun .def_1451 () Bool (and .def_1230 .def_1450))
(define-fun .def_1452 () Bool (and .def_1091 .def_1451))
(define-fun .def_1453 () Bool (and .def_1104 .def_1452))
(define-fun .def_1454 () Bool (and .def_1111 .def_1453))
(define-fun .def_1455 () Bool (and .def_1125 .def_1454))
(define-fun .def_1469 () Bool (or .def_1455 .def_1468))
(define-fun .def_1435 () Bool (and param_e03 .def_1380))
(define-fun .def_1436 () Bool (and .def_1332 .def_1435))
(define-fun .def_1437 () Bool (and .def_1144 .def_1436))
(define-fun .def_1438 () Bool (and .def_1097 .def_1437))
(define-fun .def_1439 () Bool (and .def_1185 .def_1438))
(define-fun .def_1440 () Bool (and .def_1230 .def_1439))
(define-fun .def_1441 () Bool (and .def_1091 .def_1440))
(define-fun .def_1442 () Bool (and .def_1104 .def_1441))
(define-fun .def_1443 () Bool (and .def_1111 .def_1442))
(define-fun .def_1444 () Bool (and .def_1125 .def_1443))
(define-fun .def_1470 () Bool (or .def_1444 .def_1469))
(define-fun .def_1426 () Bool (and param_e04 .def_1381))
(define-fun .def_1427 () Bool (and .def_1144 .def_1426))
(define-fun .def_1428 () Bool (and .def_1097 .def_1427))
(define-fun .def_1429 () Bool (and .def_1185 .def_1428))
(define-fun .def_1430 () Bool (and .def_1230 .def_1429))
(define-fun .def_1431 () Bool (and .def_1091 .def_1430))
(define-fun .def_1432 () Bool (and .def_1104 .def_1431))
(define-fun .def_1433 () Bool (and .def_1111 .def_1432))
(define-fun .def_1434 () Bool (and .def_1125 .def_1433))
(define-fun .def_1471 () Bool (or .def_1434 .def_1470))
(define-fun .def_1418 () Bool (and param_e05 .def_1382))
(define-fun .def_1419 () Bool (and .def_1097 .def_1418))
(define-fun .def_1420 () Bool (and .def_1185 .def_1419))
(define-fun .def_1421 () Bool (and .def_1230 .def_1420))
(define-fun .def_1422 () Bool (and .def_1091 .def_1421))
(define-fun .def_1423 () Bool (and .def_1104 .def_1422))
(define-fun .def_1424 () Bool (and .def_1111 .def_1423))
(define-fun .def_1425 () Bool (and .def_1125 .def_1424))
(define-fun .def_1472 () Bool (or .def_1425 .def_1471))
(define-fun .def_1411 () Bool (and param_e06 .def_1383))
(define-fun .def_1412 () Bool (and .def_1185 .def_1411))
(define-fun .def_1413 () Bool (and .def_1230 .def_1412))
(define-fun .def_1414 () Bool (and .def_1091 .def_1413))
(define-fun .def_1415 () Bool (and .def_1104 .def_1414))
(define-fun .def_1416 () Bool (and .def_1111 .def_1415))
(define-fun .def_1417 () Bool (and .def_1125 .def_1416))
(define-fun .def_1473 () Bool (or .def_1417 .def_1472))
(define-fun .def_1405 () Bool (and param_e07 .def_1384))
(define-fun .def_1406 () Bool (and .def_1230 .def_1405))
(define-fun .def_1407 () Bool (and .def_1091 .def_1406))
(define-fun .def_1408 () Bool (and .def_1104 .def_1407))
(define-fun .def_1409 () Bool (and .def_1111 .def_1408))
(define-fun .def_1410 () Bool (and .def_1125 .def_1409))
(define-fun .def_1474 () Bool (or .def_1410 .def_1473))
(define-fun .def_1400 () Bool (and param_e08 .def_1385))
(define-fun .def_1401 () Bool (and .def_1091 .def_1400))
(define-fun .def_1402 () Bool (and .def_1104 .def_1401))
(define-fun .def_1403 () Bool (and .def_1111 .def_1402))
(define-fun .def_1404 () Bool (and .def_1125 .def_1403))
(define-fun .def_1475 () Bool (or .def_1404 .def_1474))
(define-fun .def_1396 () Bool (and param_e09 .def_1386))
(define-fun .def_1397 () Bool (and .def_1104 .def_1396))
(define-fun .def_1398 () Bool (and .def_1111 .def_1397))
(define-fun .def_1399 () Bool (and .def_1125 .def_1398))
(define-fun .def_1476 () Bool (or .def_1399 .def_1475))
(define-fun .def_1393 () Bool (and param_e10 .def_1387))
(define-fun .def_1394 () Bool (and .def_1111 .def_1393))
(define-fun .def_1395 () Bool (and .def_1125 .def_1394))
(define-fun .def_1477 () Bool (or .def_1395 .def_1476))
(define-fun .def_1391 () Bool (and param_e11 .def_1388))
(define-fun .def_1392 () Bool (and .def_1125 .def_1391))
(define-fun .def_1478 () Bool (or .def_1392 .def_1477))
(define-fun .def_1390 () Bool (and param_e12 .def_1389))
(define-fun .def_1479 () Bool (or .def_1390 .def_1478))
(define-fun .def_1480 () Bool (= call_excludes12.excludes .def_1479))
(define-fun .def_1378 () Bool (= call_rtp.erreur call_rtp.ite))
(define-fun .def_1376 () Bool (= call_rtp.flby9 call_rtp._X9_))
(define-fun .def_1374 () Bool (= call_rtp.flby8 call_rtp._X8_))
(define-fun .def_1372 () Bool (= call_rtp.flby7 call_rtp._X7_))
(define-fun .def_1370 () Bool (= call_rtp.flby6 call_rtp._X6_))
(define-fun .def_1368 () Bool (= call_rtp.flby5 call_rtp._X5_))
(define-fun .def_1366 () Bool (= call_rtp.flby4 call_rtp._X4_))
(define-fun .def_1364 () Bool (= call_rtp.flby3 call_rtp._X3_))
(define-fun .def_1362 () Bool (= call_rtp.flby2 call_rtp._X2_))
(define-fun .def_1359 () Bool (= call_rtp.flby call_rtp._X1_))
(define-fun .def_1354 () Bool (<= 2 call_rtp._X1_))
(define-fun .def_1356 () Bool (not .def_1354))
(define-fun .def_1357 () Bool (or call_rtp.ite .def_1356))
(define-fun .def_1353 () Bool (not call_rtp.ite))
(define-fun .def_1355 () Bool (or .def_1353 .def_1354))
(define-fun .def_1358 () Bool (and .def_1355 .def_1357))
(define-fun .def_1360 () Bool (and .def_1358 .def_1359))
(define-fun .def_1348 () Bool (= call_rtp.ite49 call_rtp.ite40))
(define-fun .def_1349 () Bool (or .def_1144 .def_1348))
(define-fun .def_1345 () Bool (= call_rtp.ite48 call_rtp.ite49))
(define-fun .def_1346 () Bool (or param_e05 .def_1345))
(define-fun .def_1350 () Bool (and .def_1346 .def_1349))
(define-fun .def_1340 () Bool (= call_rtp.ite22 call_rtp.ite23))
(define-fun .def_1341 () Bool (or param_e04 .def_1340))
(define-fun .def_1337 () Bool (= call_rtp.ite20 call_rtp.ite23))
(define-fun .def_1338 () Bool (or .def_1332 .def_1337))
(define-fun .def_1331 () Bool (= call_rtp.ite18 call_rtp.ite15))
(define-fun .def_1333 () Bool (or .def_1331 .def_1332))
(define-fun .def_1327 () Bool (= call_rtp.ite17 call_rtp.ite18))
(define-fun .def_1329 () Bool (or .def_1327 param_e04))
(define-fun .def_1334 () Bool (and .def_1329 .def_1333))
(define-fun .def_1339 () Bool (and .def_1334 .def_1338))
(define-fun .def_1342 () Bool (and .def_1339 .def_1341))
(define-fun .def_1323 () Bool (= call_rtp.ite19 call_rtp.ite14))
(define-fun .def_1324 () Bool (or .def_1137 .def_1323))
(define-fun .def_1320 () Bool (= call_rtp.ite19 call_rtp.ite18))
(define-fun .def_1321 () Bool (or param_e03 .def_1320))
(define-fun .def_1325 () Bool (and .def_1321 .def_1324))
(define-fun .def_1314 () Bool (= call_rtp.ite12 call_rtp.ite13))
(define-fun .def_1315 () Bool (or param_e02 .def_1314))
(define-fun .def_1311 () Bool (= call_rtp.ite10 call_rtp.ite13))
(define-fun .def_1312 () Bool (or .def_1306 .def_1311))
(define-fun .def_1305 () Bool (= call_rtp.ite8 call_rtp.ite5))
(define-fun .def_1307 () Bool (or .def_1305 .def_1306))
(define-fun .def_1301 () Bool (= call_rtp.ite7 call_rtp.ite8))
(define-fun .def_1303 () Bool (or .def_1301 param_e02))
(define-fun .def_1308 () Bool (and .def_1303 .def_1307))
(define-fun .def_1313 () Bool (and .def_1308 .def_1312))
(define-fun .def_1316 () Bool (and .def_1313 .def_1315))
(define-fun .def_1297 () Bool (= call_rtp.ite9 call_rtp.ite4))
(define-fun .def_1298 () Bool (or .def_1118 .def_1297))
(define-fun .def_1294 () Bool (= call_rtp.ite9 call_rtp.ite8))
(define-fun .def_1295 () Bool (or param_e01 .def_1294))
(define-fun .def_1299 () Bool (and .def_1295 .def_1298))
(define-fun .def_1288 () Bool (= call_rtp.ite46 call_rtp.ite43))
(define-fun .def_1289 () Bool (or .def_1111 .def_1288))
(define-fun .def_1285 () Bool (= call_rtp.ite45 call_rtp.ite46))
(define-fun .def_1286 () Bool (or param_e11 .def_1285))
(define-fun .def_1290 () Bool (and .def_1286 .def_1289))
(define-fun .def_1281 () Bool (= call_rtp.ite47 call_rtp.ite42))
(define-fun .def_1282 () Bool (or .def_1104 .def_1281))
(define-fun .def_1278 () Bool (= call_rtp.ite47 call_rtp.ite46))
(define-fun .def_1279 () Bool (or param_e10 .def_1278))
(define-fun .def_1283 () Bool (and .def_1279 .def_1282))
(define-fun .def_1273 () Bool (= call_rtp.ite39 call_rtp.ite36))
(define-fun .def_1274 () Bool (or .def_1091 .def_1273))
(define-fun .def_1270 () Bool (= call_rtp.ite38 call_rtp.ite39))
(define-fun .def_1271 () Bool (or param_e09 .def_1270))
(define-fun .def_1275 () Bool (and .def_1271 .def_1274))
(define-fun .def_1267 () Bool (= erreur call_rtp.erreur))
(define-fun .def_1264 () Bool (= _X9_ call_rtp._X9_))
(define-fun .def_1260 () Bool (= _X8_ call_rtp._X8_))
(define-fun .def_1256 () Bool (= _X7_ call_rtp._X7_))
(define-fun .def_1252 () Bool (= _X6_ call_rtp._X6_))
(define-fun .def_1248 () Bool (= _X5_ call_rtp._X5_))
(define-fun .def_1244 () Bool (= _X4_ call_rtp._X4_))
(define-fun .def_1238 () Bool (= call_rtp.ite34 call_rtp.ite35))
(define-fun .def_1239 () Bool (or param_e08 .def_1238))
(define-fun .def_1235 () Bool (= call_rtp.ite32 call_rtp.ite35))
(define-fun .def_1236 () Bool (or .def_1230 .def_1235))
(define-fun .def_1229 () Bool (= call_rtp.ite29 call_rtp.ite26))
(define-fun .def_1231 () Bool (or .def_1229 .def_1230))
(define-fun .def_1225 () Bool (= call_rtp.ite28 call_rtp.ite29))
(define-fun .def_1227 () Bool (or .def_1225 param_e08))
(define-fun .def_1232 () Bool (and .def_1227 .def_1231))
(define-fun .def_1237 () Bool (and .def_1232 .def_1236))
(define-fun .def_1240 () Bool (and .def_1237 .def_1239))
(define-fun .def_1223 () Bool (= _X3_ call_rtp._X3_))
(define-fun .def_1219 () Bool (= _X2_ call_rtp._X2_))
(define-fun .def_1215 () Bool (= _X1_ call_rtp._X1_))
(define-fun .def_1209 () Bool (not erreur))
(define-fun .def_1207 () Bool (not call_Sofar.Sofar))
(define-fun .def_1210 () Bool (or .def_1207 .def_1209))
(define-fun .def_1211 () Bool (= _OK_ .def_1210))
(define-fun .def_1201 () Bool (= call_rtp.ite31 call_rtp.ite24))
(define-fun .def_1202 () Bool (or .def_1097 .def_1201))
(define-fun .def_1198 () Bool (= call_rtp.ite30 call_rtp.ite31))
(define-fun .def_1199 () Bool (or param_e06 .def_1198))
(define-fun .def_1203 () Bool (and .def_1199 .def_1202))
(define-fun .def_1194 () Bool (= call_rtp.ite30 call_rtp.ite29))
(define-fun .def_1195 () Bool (or param_e07 .def_1194))
(define-fun .def_1190 () Bool (= call_rtp.ite25 call_rtp.ite30))
(define-fun .def_1191 () Bool (or .def_1185 .def_1190))
(define-fun .def_1184 () Bool (= call_rtp.ite48 call_rtp.ite41))
(define-fun .def_1186 () Bool (or .def_1184 .def_1185))
(define-fun .def_1180 () Bool (= call_rtp.ite47 call_rtp.ite48))
(define-fun .def_1182 () Bool (or .def_1180 param_e07))
(define-fun .def_1187 () Bool (and .def_1182 .def_1186))
(define-fun .def_1192 () Bool (and .def_1187 .def_1191))
(define-fun .def_1196 () Bool (and .def_1192 .def_1195))
(define-fun .def_1204 () Bool (and .def_1196 .def_1203))
(define-fun .def_1212 () Bool (and .def_1204 .def_1211))
(define-fun .def_1216 () Bool (and .def_1212 .def_1215))
(define-fun .def_1220 () Bool (and .def_1216 .def_1219))
(define-fun .def_1224 () Bool (and .def_1220 .def_1223))
(define-fun .def_1241 () Bool (and .def_1224 .def_1240))
(define-fun .def_1245 () Bool (and .def_1241 .def_1244))
(define-fun .def_1249 () Bool (and .def_1245 .def_1248))
(define-fun .def_1253 () Bool (and .def_1249 .def_1252))
(define-fun .def_1257 () Bool (and .def_1253 .def_1256))
(define-fun .def_1261 () Bool (and .def_1257 .def_1260))
(define-fun .def_1265 () Bool (and .def_1261 .def_1264))
(define-fun .def_1268 () Bool (and .def_1265 .def_1267))
(define-fun .def_1276 () Bool (and .def_1268 .def_1275))
(define-fun .def_1284 () Bool (and .def_1276 .def_1283))
(define-fun .def_1291 () Bool (and .def_1284 .def_1290))
(define-fun .def_1300 () Bool (and .def_1291 .def_1299))
(define-fun .def_1317 () Bool (and .def_1300 .def_1316))
(define-fun .def_1326 () Bool (and .def_1317 .def_1325))
(define-fun .def_1343 () Bool (and .def_1326 .def_1342))
(define-fun .def_1351 () Bool (and .def_1343 .def_1350))
(define-fun .def_1361 () Bool (and .def_1351 .def_1360))
(define-fun .def_1363 () Bool (and .def_1361 .def_1362))
(define-fun .def_1365 () Bool (and .def_1363 .def_1364))
(define-fun .def_1367 () Bool (and .def_1365 .def_1366))
(define-fun .def_1369 () Bool (and .def_1367 .def_1368))
(define-fun .def_1371 () Bool (and .def_1369 .def_1370))
(define-fun .def_1373 () Bool (and .def_1371 .def_1372))
(define-fun .def_1375 () Bool (and .def_1373 .def_1374))
(define-fun .def_1377 () Bool (and .def_1375 .def_1376))
(define-fun .def_1379 () Bool (and .def_1377 .def_1378))
(define-fun .def_1481 () Bool (and .def_1379 .def_1480))
(define-fun .def_1483 () Bool (and .def_1481 .def_1482))
(define-fun .def_1176 () Bool (= call_excludes12.excludes call_Sofar.flby))
(define-fun .def_1172 () Bool (= call_rtp.flby7 0))
(define-fun .def_1169 () Bool (= call_rtp.flby6 0))
(define-fun .def_1166 () Bool (= call_rtp.flby5 0))
(define-fun .def_1163 () Bool (= call_rtp.flby4 0))
(define-fun .def_1160 () Bool (= call_rtp.flby3 0))
(define-fun .def_1157 () Bool (= call_rtp.flby2 0))
(define-fun .def_1154 () Bool (= call_rtp.flby 1))
(define-fun .def_1151 () Bool (= call_rtp.flby9 0))
(define-fun .def_1148 () Bool (= call_rtp.flby8 0))
(define-fun .def_1142 () Bool (= call_rtp.ite16 call_rtp.ite17))
(define-fun .def_1145 () Bool (or .def_1142 .def_1144))
(define-fun .def_1135 () Bool (= call_rtp.ite11 call_rtp.ite12))
(define-fun .def_1138 () Bool (or .def_1135 .def_1137))
(define-fun .def_1129 () Bool (= call_rtp.ite44 call_rtp.ite45))
(define-fun .def_1130 () Bool (or .def_1125 .def_1129))
(define-fun .def_1123 () Bool (= call_rtp.ite6 call_rtp.ite7))
(define-fun .def_1126 () Bool (or .def_1123 .def_1125))
(define-fun .def_1131 () Bool (and .def_1126 .def_1130))
(define-fun .def_1116 () Bool (= call_rtp.ite3 call_rtp.ite2))
(define-fun .def_1119 () Bool (or .def_1116 .def_1118))
(define-fun .def_1109 () Bool (= call_rtp.ite37 call_rtp.ite38))
(define-fun .def_1112 () Bool (or .def_1109 .def_1111))
(define-fun .def_1102 () Bool (= call_rtp.ite33 call_rtp.ite34))
(define-fun .def_1105 () Bool (or .def_1102 .def_1104))
(define-fun .def_1095 () Bool (= call_rtp.ite21 call_rtp.ite22))
(define-fun .def_1098 () Bool (or .def_1095 .def_1097))
(define-fun .def_1089 () Bool (= call_rtp.ite27 call_rtp.ite28))
(define-fun .def_1092 () Bool (or .def_1089 .def_1091))
(define-fun .def_1099 () Bool (and .def_1092 .def_1098))
(define-fun .def_1106 () Bool (and .def_1099 .def_1105))
(define-fun .def_1113 () Bool (and .def_1106 .def_1112))
(define-fun .def_1120 () Bool (and .def_1113 .def_1119))
(define-fun .def_1132 () Bool (and .def_1120 .def_1131))
(define-fun .def_1139 () Bool (and .def_1132 .def_1138))
(define-fun .def_1146 () Bool (and .def_1139 .def_1145))
(define-fun .def_1149 () Bool (and .def_1146 .def_1148))
(define-fun .def_1152 () Bool (and .def_1149 .def_1151))
(define-fun .def_1155 () Bool (and .def_1152 .def_1154))
(define-fun .def_1158 () Bool (and .def_1155 .def_1157))
(define-fun .def_1161 () Bool (and .def_1158 .def_1160))
(define-fun .def_1164 () Bool (and .def_1161 .def_1163))
(define-fun .def_1167 () Bool (and .def_1164 .def_1166))
(define-fun .def_1170 () Bool (and .def_1167 .def_1169))
(define-fun .def_1173 () Bool (and .def_1170 .def_1172))
(define-fun .def_1177 () Bool (and .def_1173 .def_1176))
(define-fun .def_1484 () Bool (and .def_1177 .def_1483))
(assert .def_1484)
